! B3LYP STO-3G SP
%pal
  nprocs 4
end

%paras
  R = 0.50, 3.00, 16
end

* xyz 0 1
C   0.000000   0.000000   0.000000
H   0.000000   0.000000  {R}
H  -0.907297  -0.496407  -0.351129
H   0.673211   0.167304  -0.843621
H  -0.261596   0.958896   0.452753
*