! HF STO-3G SP
%pal
  nprocs 1
end

%paras
  R = 0.20, 3.00, 16
end

* xyz 0 1
H  0.0  0.0  0.0
H  0.0  0.0  {R}
*